POSCAR                                  
   1.00000000000000     
     9.0000000000000000    0.0000000000000000    0.0000000000000000
     0.0000000000000000   10.0000000000000000    0.0000000000000000
     0.0000000000000000    0.0000000000000000   11.0000000000000000
   O 
     2
Selective dynamics
Direct
  0.4413503135858647  0.5055847745784163  0.5024986997010501   T   T   T
  0.5781596864141321  0.5033752254215855  0.4945031184807631   T   T   T
 
  0.00000000E+00  0.00000000E+00  0.00000000E+00
  0.00000000E+00  0.00000000E+00  0.00000000E+00
