ISPIN = 2

IBRION = 5
POTIM = 0.02
NSW  = 1
NELM = 200

LREAL = Auto
ALGO = Fast

LORBIT = 11

MAGMOM = 2*2.0

EDIFF = 5e-6
EDIFFG = -1e-2
ISMEAR = 0
SIGMA = 0.01  # origin: 0.1
ENCUT = 450
LWAVE = .FALSE.
LCHARG = .FALSE.
IALGO = 38
#AMIX = 0.2
#BMIX = 0.6
#ISYM = 0
ISIF = 2
