POSCAR                                  
   1.00000000000000     
     9.0000000000000000    0.0000000000000000    0.0000000000000000
     0.0000000000000000   10.0000000000000000    0.0000000000000000
     0.0000000000000000    0.0000000000000000   11.0000000000000000
   O 
     2
Selective dynamics
Direct
  0.4413503135858675  0.5055847745784156  0.5024986997010491   T   T   T
  0.5781596864141295  0.5033752254215863  0.4963213002989457   T   T   T
 
  0.00000000E+00  0.00000000E+00  0.00000000E+00
  0.00000000E+00  0.00000000E+00  0.00000000E+00
